proyfinal/src/viki/013/andrea/andrea-localstore/experimentInOfficeAgust.take6/worker_11/4b5380a5-780d-403d-8ba6-33cd5f9ac87c.als.cnf.out
Reading from standard input... Use '--help' for help.
============================[ Problem Statistics ]=============================
|                                                                             |
|  Number of variables:         87638                                         |
|  Number of clauses:          161767                                         |
|  Parse time:                   0.04 s                                       |
|                                                                             |
============================[ Search Statistics ]==============================
| Conflicts |          ORIGINAL         |          LEARNT          | Progress |
|           |    Vars  Clauses Literals |    Limit  Clauses Lit/Cl |          |
===============================================================================
|       100 |   63762   110195   275469 |    40404       99     44 | 27.244 % |
|       250 |   63762   110195   275469 |    44445      249     60 | 27.244 % |
|       475 |   63762   110151   275379 |    48889      473     42 | 27.244 % |
|       812 |   63762   110151   275379 |    53778      810     99 | 27.244 % |
|      1318 |   63762   110151   275379 |    59156     1316     94 | 27.244 % |
|      2077 |   63762   110151   275379 |    65072     2075     85 | 27.244 % |
|      3216 |   63736   110043   275132 |    71579     3054     96 | 27.274 % |
|      4924 |   63736   110043   275132 |    78737     4762     95 | 27.274 % |
|      7486 |   51241    73566   185143 |    86611     7153     93 | 41.531 % |
|     11330 |   51005    72539   182623 |    95272    10959     82 | 41.800 % |
===============================================================================
restarts              : 63
conflicts             : 16508          (6267 /sec)
decisions             : 53082          (0.00 % random) (20152 /sec)
propagations          : 26450420       (10041441 /sec)
conflict literals     : 1291215        (49.23 % deleted)
Memory used           : 27.68 MB
CPU time              : 2.63413 s

INDETERMINATE
